p tw 240 3801 8 
1 9 
1 11 
1 201 
1 203 
2 7 
2 10 
2 12 
2 202 
2 204 
3 8 
3 10 
3 193 
4 7 
4 9 
4 194 
5 9 
5 10 
5 195 
6 7 
6 8 
6 196 
11 18 
11 19 
11 203 
12 17 
12 20 
12 204 
13 18 
13 20 
13 23 
14 17 
14 19 
14 24 
15 19 
15 20 
15 25 
16 17 
16 18 
16 26 
21 28 
21 29 
21 31 
21 205 
21 207 
22 27 
22 30 
22 32 
22 206 
22 208 
23 28 
23 30 
24 27 
24 29 
25 29 
25 30 
26 27 
26 28 
31 38 
31 39 
31 207 
32 37 
32 40 
32 208 
33 38 
33 40 
33 43 
34 37 
34 39 
34 44 
35 39 
35 40 
35 45 
36 37 
36 38 
36 46 
41 48 
41 49 
41 51 
41 209 
41 211 
42 47 
42 50 
42 52 
42 210 
42 212 
43 48 
43 50 
44 47 
44 49 
45 49 
45 50 
46 47 
46 48 
51 58 
51 59 
51 211 
52 57 
52 60 
52 212 
53 58 
53 60 
53 63 
54 57 
54 59 
54 64 
55 59 
55 60 
55 65 
56 57 
56 58 
56 66 
61 68 
61 69 
61 71 
61 213 
61 215 
62 67 
62 70 
62 72 
62 214 
62 216 
63 68 
63 70 
64 67 
64 69 
65 69 
65 70 
66 67 
66 68 
71 78 
71 79 
71 215 
72 77 
72 80 
72 216 
73 78 
73 80 
73 83 
74 77 
74 79 
74 84 
75 79 
75 80 
75 85 
76 77 
76 78 
76 86 
81 88 
81 89 
81 91 
81 217 
81 219 
82 87 
82 90 
82 92 
82 218 
82 220 
83 88 
83 90 
84 87 
84 89 
85 89 
85 90 
86 87 
86 88 
91 98 
91 99 
91 219 
92 97 
92 100 
92 220 
93 98 
93 100 
93 103 
94 97 
94 99 
94 104 
95 99 
95 100 
95 105 
96 97 
96 98 
96 106 
101 108 
101 109 
101 111 
101 221 
101 223 
102 107 
102 110 
102 112 
102 222 
102 224 
103 108 
103 110 
104 107 
104 109 
105 109 
105 110 
106 107 
106 108 
111 118 
111 119 
111 223 
112 117 
112 120 
112 224 
113 118 
113 120 
113 123 
114 117 
114 119 
114 124 
115 119 
115 120 
115 125 
116 117 
116 118 
116 126 
121 128 
121 129 
121 131 
121 225 
121 227 
122 127 
122 130 
122 132 
122 226 
122 228 
123 128 
123 130 
124 127 
124 129 
125 129 
125 130 
126 127 
126 128 
131 138 
131 139 
131 227 
132 137 
132 140 
132 228 
133 138 
133 140 
133 143 
134 137 
134 139 
134 144 
135 139 
135 140 
135 145 
136 137 
136 138 
136 146 
141 148 
141 149 
141 151 
141 229 
141 231 
142 147 
142 150 
142 152 
142 230 
142 232 
143 148 
143 150 
144 147 
144 149 
145 149 
145 150 
146 147 
146 148 
151 158 
151 159 
151 231 
152 157 
152 160 
152 232 
153 158 
153 160 
153 163 
154 157 
154 159 
154 164 
155 159 
155 160 
155 165 
156 157 
156 158 
156 166 
161 168 
161 169 
161 171 
161 233 
161 235 
162 167 
162 170 
162 172 
162 234 
162 236 
163 168 
163 170 
164 167 
164 169 
165 169 
165 170 
166 167 
166 168 
171 178 
171 179 
171 235 
172 177 
172 180 
172 236 
173 178 
173 180 
173 183 
174 177 
174 179 
174 184 
175 179 
175 180 
175 185 
176 177 
176 178 
176 186 
181 188 
181 189 
181 191 
181 237 
181 239 
182 187 
182 190 
182 192 
182 238 
182 240 
183 188 
183 190 
184 187 
184 189 
185 189 
185 190 
186 187 
186 188 
191 198 
191 199 
191 239 
192 197 
192 200 
192 240 
193 198 
193 200 
194 197 
194 199 
195 199 
195 200 
196 197 
196 198 
201 202 
203 204 
205 206 
207 208 
209 210 
211 212 
213 214 
215 216 
217 218 
219 220 
221 222 
223 224 
225 226 
227 228 
229 230 
231 232 
233 234 
235 236 
237 238 
239 240 
